(set-logic QF_S)
(declare-fun var0 () String)
(declare-fun var1 () String)
(declare-fun var2 () String)
(declare-fun var3 () String)
(declare-fun var4 () String)
(declare-fun var5 () String)
(declare-fun var6 () String)
(assert (= (str.++ "WF6" (str.++ var0 (str.++ var1 (str.++ var2 (str.++ var3 (str.++ var4 (str.++ var5 var6))))))) (str.++ (str.++ var0 (str.++ var1 (str.++ var2 (str.++ var3 (str.++ var4 (str.++ var5 var6)))))) "`[P")))
(check-sat)